; benchmark generated from python API
(set-info :status unknown)
(declare-fun x_days () (_ BitVec 32))
(assert
 (bvsle (_ bv4294930771 32) x_days))
(assert
 (bvsge (_ bv36523 32) x_days))
(assert
 (bvsge x_days (_ bv7245 32)))
(assert
 (bvsle x_days (_ bv7303 32)))
(assert
 (let ((?x591 (bvadd x_days (_ bv730179 32))))
(let ((?x563 (bvsmod ?x591 (_ bv146097 32))))
(let ((?x2689 (bvsdiv ?x563 (_ bv36524 32))))
(let ((?x691 (ite (bvsle (_ bv4 32) ?x2689) (_ bv3 32) ?x2689)))
(let ((?x4204 (bvsub ?x563 (bvmul ?x691 (_ bv36524 32)))))
(let ((?x3928 (bvsmod ?x4204 (_ bv1461 32))))
(let ((?x2509 (bvsdiv ?x3928 (_ bv365 32))))
(let ((?x1867 (ite (bvsle (_ bv4 32) ?x2509) (_ bv3 32) ?x2509)))
(let ((?x4635 (bvadd (bvadd (bvmul (bvsdiv ?x591 (_ bv146097 32)) (_ bv400 32)) (bvmul ?x691 (_ bv100 32))) (bvmul (bvsdiv ?x4204 (_ bv1461 32)) (_ bv4 32)))))
(let ((?x3363 (bvadd (bvadd ?x4635 ?x1867) (_ bv1 32))))
(let (($x637 (or (and (= (bvsmod ?x3363 (_ bv4 32)) (_ bv0 32)) (and (distinct (bvsmod ?x3363 (_ bv100 32)) (_ bv0 32)) true)) (= (bvsmod ?x3363 (_ bv400 32)) (_ bv0 32)))))
(let ((?x1443 (bvsub ?x3928 (bvmul ?x1867 (_ bv365 32)))))
(let ((?x2936 (ite $x637 (_ bv31 32) (_ bv31 32))))
(let (($x3198 (bvsge ?x1443 ?x2936)))
(let ((?x695 (ite $x3198 (bvadd (bvsub ?x1443 ?x2936) (_ bv1 32)) (bvadd (bvsub ?x1443 (ite $x637 (_ bv0 32) (_ bv0 32))) (_ bv1 32)))))
(let ((?x3490 (ite $x637 (_ bv60 32) (_ bv59 32))))
(let (($x3135 (bvsge ?x1443 ?x3490)))
(let ((?x1550 (ite $x637 (_ bv91 32) (_ bv90 32))))
(let (($x2882 (bvsge ?x1443 ?x1550)))
(let ((?x2463 (ite $x2882 (bvadd (bvsub ?x1443 ?x1550) (_ bv1 32)) (ite $x3135 (bvadd (bvsub ?x1443 ?x3490) (_ bv1 32)) ?x695))))
(let ((?x2083 (ite $x637 (_ bv121 32) (_ bv120 32))))
(let (($x997 (bvsge ?x1443 ?x2083)))
(let ((?x1427 (ite $x637 (_ bv152 32) (_ bv151 32))))
(let (($x4206 (bvsge ?x1443 ?x1427)))
(let ((?x2654 (ite $x4206 (bvadd (bvsub ?x1443 ?x1427) (_ bv1 32)) (ite $x997 (bvadd (bvsub ?x1443 ?x2083) (_ bv1 32)) ?x2463))))
(let ((?x3234 (ite $x637 (_ bv182 32) (_ bv181 32))))
(let (($x6010 (bvsge ?x1443 ?x3234)))
(let ((?x2913 (ite $x637 (_ bv213 32) (_ bv212 32))))
(let (($x2968 (bvsge ?x1443 ?x2913)))
(let ((?x1832 (ite $x2968 (bvadd (bvsub ?x1443 ?x2913) (_ bv1 32)) (ite $x6010 (bvadd (bvsub ?x1443 ?x3234) (_ bv1 32)) ?x2654))))
(let ((?x1518 (ite $x637 (_ bv244 32) (_ bv243 32))))
(let (($x3653 (bvsge ?x1443 ?x1518)))
(let ((?x4126 (ite $x637 (_ bv274 32) (_ bv273 32))))
(let (($x2975 (bvsge ?x1443 ?x4126)))
(let ((?x1820 (ite $x2975 (bvadd (bvsub ?x1443 ?x4126) (_ bv1 32)) (ite $x3653 (bvadd (bvsub ?x1443 ?x1518) (_ bv1 32)) ?x1832))))
(let ((?x18910 (ite $x637 (_ bv305 32) (_ bv304 32))))
(let (($x2918 (bvsge ?x1443 ?x18910)))
(let ((?x3602 (ite $x637 (_ bv335 32) (_ bv334 32))))
(let (($x4083 (bvsge ?x1443 ?x3602)))
(let ((?x3186 (ite $x4083 (bvadd (bvsub ?x1443 ?x3602) (_ bv1 32)) (ite $x2918 (bvadd (bvsub ?x1443 ?x18910) (_ bv1 32)) ?x1820))))
(let ((?x4202 (ite $x4206 (_ bv6 32) (ite $x997 (_ bv5 32) (ite $x2882 (_ bv4 32) (ite $x3135 (_ bv3 32) (ite $x3198 (_ bv2 32) (_ bv1 32))))))))
(let ((?x2746 (ite $x2918 (_ bv11 32) (ite $x2975 (_ bv10 32) (ite $x3653 (_ bv9 32) (ite $x2968 (_ bv8 32) (ite $x6010 (_ bv7 32) ?x4202)))))))
(let ((?x1481 (bvadd (ite $x4083 (_ bv12 32) ?x2746) (bvadd (bvmul (_ bv1 32) (_ bv12 32)) (_ bv0 32)))))
(let ((?x1241 (bvsub (ite (bvuge ?x1481 (_ bv2147483648 32)) (bvsub ?x1481 (_ bv0 32)) ?x1481) (_ bv1 32))))
(let ((?x3220 (bvsmod ?x1241 (_ bv12 32))))
(let ((?x3348 (bvadd ?x3220 (_ bv1 32))))
(let ((?x424 (ite (or (= ?x3348 (_ bv4 32)) (= ?x3348 (_ bv6 32)) (= ?x3348 (_ bv9 32)) (= ?x3348 (_ bv11 32))) (_ bv30 32) (_ bv31 32))))
(let ((?x404 (bvsdiv ?x1241 (_ bv12 32))))
(let ((?x3019 (ite (and (bvuge ?x1241 (_ bv2147483648 32)) (and (distinct (_ bv0 32) ?x3220) true)) (bvsub ?x404 (_ bv1 32)) ?x404)))
(let ((?x1411 (bvadd ?x3363 (bvadd (_ bv0 32) ?x3019))))
(let (($x4047 (or (and (= (bvsmod ?x1411 (_ bv4 32)) (_ bv0 32)) (and (distinct (bvsmod ?x1411 (_ bv100 32)) (_ bv0 32)) true)) (= (bvsmod ?x1411 (_ bv400 32)) (_ bv0 32)))))
(let ((?x1523 (ite (= ?x3348 (_ bv2 32)) (ite $x4047 (_ bv29 32) (_ bv28 32)) ?x424)))
(let ((?x766 (ite (bvsgt (_ bv1 32) ?x3186) (_ bv1 32) (ite (bvsgt ?x3186 ?x1523) ?x1523 ?x3186))))
(let ((?x2161 (ite (bvsgt (_ bv1 32) ?x766) (_ bv1 32) (ite (bvsgt ?x766 ?x1523) ?x1523 ?x766))))
(let ((?x4432 (ite (= (_ bv2 32) ?x3348) (ite $x4047 (_ bv31 32) (_ bv31 32)) (ite (= (_ bv1 32) ?x3348) (ite $x4047 (_ bv0 32) (_ bv0 32)) (_ bv0 32)))))
(let ((?x3962 (ite (= (_ bv4 32) ?x3348) (ite $x4047 (_ bv91 32) (_ bv90 32)) (ite (= (_ bv3 32) ?x3348) (ite $x4047 (_ bv60 32) (_ bv59 32)) ?x4432))))
(let ((?x1043 (ite (= (_ bv6 32) ?x3348) (ite $x4047 (_ bv152 32) (_ bv151 32)) (ite (= (_ bv5 32) ?x3348) (ite $x4047 (_ bv121 32) (_ bv120 32)) ?x3962))))
(let ((?x2475 (ite (= (_ bv8 32) ?x3348) (ite $x4047 (_ bv213 32) (_ bv212 32)) (ite (= (_ bv7 32) ?x3348) (ite $x4047 (_ bv182 32) (_ bv181 32)) ?x1043))))
(let ((?x905 (ite (= (_ bv10 32) ?x3348) (ite $x4047 (_ bv274 32) (_ bv273 32)) (ite (= (_ bv9 32) ?x3348) (ite $x4047 (_ bv244 32) (_ bv243 32)) ?x2475))))
(let ((?x3640 (ite (= (_ bv12 32) ?x3348) (ite $x4047 (_ bv335 32) (_ bv334 32)) (ite (= (_ bv11 32) ?x3348) (ite $x4047 (_ bv305 32) (_ bv304 32)) ?x905))))
(let ((?x1977 (bvadd (bvmul (_ bv365 32) (bvsub ?x1411 (_ bv1 32))) (bvsdiv (bvsub ?x1411 (_ bv1 32)) (_ bv4 32)))))
(let ((?x3132 (bvadd (bvsub ?x1977 (bvsdiv (bvsub ?x1411 (_ bv1 32)) (_ bv100 32))) (bvsdiv (bvsub ?x1411 (_ bv1 32)) (_ bv400 32)))))
(let ((?x2204 (bvadd (bvadd (bvsub (bvadd (bvadd ?x3132 ?x3640) (bvsub ?x2161 (_ bv1 32))) (_ bv730179 32)) (_ bv0 32)) (_ bv730179 32))))
(let ((?x2320 (bvsmod ?x2204 (_ bv146097 32))))
(let ((?x4517 (bvsdiv ?x2320 (_ bv36524 32))))
(let ((?x1321 (ite (bvsle (_ bv4 32) ?x4517) (_ bv3 32) ?x4517)))
(let ((?x569 (bvsub ?x2320 (bvmul ?x1321 (_ bv36524 32)))))
(let ((?x41092 (bvsmod ?x569 (_ bv1461 32))))
(let ((?x1690 (bvsdiv ?x41092 (_ bv365 32))))
(let ((?x727 (ite (bvsle (_ bv4 32) ?x1690) (_ bv3 32) ?x1690)))
(let ((?x4170 (bvadd (bvadd (bvmul (bvsdiv ?x2204 (_ bv146097 32)) (_ bv400 32)) (bvmul ?x1321 (_ bv100 32))) (bvmul (bvsdiv ?x569 (_ bv1461 32)) (_ bv4 32)))))
(let ((?x4082 (bvadd (bvadd ?x4170 ?x727) (_ bv1 32))))
(let (($x2623 (or (and (= (bvsmod ?x4082 (_ bv4 32)) (_ bv0 32)) (and (distinct (bvsmod ?x4082 (_ bv100 32)) (_ bv0 32)) true)) (= (bvsmod ?x4082 (_ bv400 32)) (_ bv0 32)))))
(let ((?x39644 (bvsub ?x41092 (bvmul ?x727 (_ bv365 32)))))
(let ((?x1720 (ite $x2623 (_ bv31 32) (_ bv31 32))))
(let (($x857 (bvsge ?x39644 ?x1720)))
(let ((?x2060 (ite $x857 (bvadd (bvsub ?x39644 ?x1720) (_ bv1 32)) (bvadd (bvsub ?x39644 (ite $x2623 (_ bv0 32) (_ bv0 32))) (_ bv1 32)))))
(let ((?x4224 (ite $x2623 (_ bv60 32) (_ bv59 32))))
(let (($x1338 (bvsge ?x39644 ?x4224)))
(let ((?x4056 (ite $x2623 (_ bv91 32) (_ bv90 32))))
(let (($x4545 (bvsge ?x39644 ?x4056)))
(let ((?x4856 (ite $x4545 (bvadd (bvsub ?x39644 ?x4056) (_ bv1 32)) (ite $x1338 (bvadd (bvsub ?x39644 ?x4224) (_ bv1 32)) ?x2060))))
(let ((?x2842 (ite $x2623 (_ bv121 32) (_ bv120 32))))
(let (($x1801 (bvsge ?x39644 ?x2842)))
(let ((?x2480 (ite $x2623 (_ bv152 32) (_ bv151 32))))
(let (($x618 (bvsge ?x39644 ?x2480)))
(let ((?x3149 (ite $x618 (bvadd (bvsub ?x39644 ?x2480) (_ bv1 32)) (ite $x1801 (bvadd (bvsub ?x39644 ?x2842) (_ bv1 32)) ?x4856))))
(let ((?x3881 (ite $x2623 (_ bv182 32) (_ bv181 32))))
(let (($x2527 (bvsge ?x39644 ?x3881)))
(let ((?x473 (ite $x2623 (_ bv213 32) (_ bv212 32))))
(let (($x1047 (bvsge ?x39644 ?x473)))
(let ((?x3669 (ite $x1047 (bvadd (bvsub ?x39644 ?x473) (_ bv1 32)) (ite $x2527 (bvadd (bvsub ?x39644 ?x3881) (_ bv1 32)) ?x3149))))
(let ((?x991 (ite $x2623 (_ bv244 32) (_ bv243 32))))
(let (($x2219 (bvsge ?x39644 ?x991)))
(let ((?x1693 (ite $x2623 (_ bv274 32) (_ bv273 32))))
(let (($x2561 (bvsge ?x39644 ?x1693)))
(let ((?x2793 (ite $x2561 (bvadd (bvsub ?x39644 ?x1693) (_ bv1 32)) (ite $x2219 (bvadd (bvsub ?x39644 ?x991) (_ bv1 32)) ?x3669))))
(let ((?x2749 (ite $x2623 (_ bv305 32) (_ bv304 32))))
(let (($x847 (bvsge ?x39644 ?x2749)))
(let ((?x1431 (ite $x2623 (_ bv335 32) (_ bv334 32))))
(let (($x3929 (bvsge ?x39644 ?x1431)))
(let ((?x1697 (ite $x3929 (bvadd (bvsub ?x39644 ?x1431) (_ bv1 32)) (ite $x847 (bvadd (bvsub ?x39644 ?x2749) (_ bv1 32)) ?x2793))))
(let (($x3523 (= (_ bv0 32) (_ bv0 32))))
(let (($x40680 (and (= (bvsmod (ite $x3523 ?x1411 ?x4082) (_ bv4 32)) (_ bv0 32)) (and (distinct (bvsmod (ite $x3523 ?x1411 ?x4082) (_ bv100 32)) (_ bv0 32)) true))))
(let (($x4527 (or $x40680 (= (bvsmod (ite $x3523 ?x1411 ?x4082) (_ bv400 32)) (_ bv0 32)))))
(let ((?x1388 (ite $x618 (_ bv6 32) (ite $x1801 (_ bv5 32) (ite $x4545 (_ bv4 32) (ite $x1338 (_ bv3 32) (ite $x857 (_ bv2 32) (_ bv1 32))))))))
(let ((?x3947 (ite $x847 (_ bv11 32) (ite $x2561 (_ bv10 32) (ite $x2219 (_ bv9 32) (ite $x1047 (_ bv8 32) (ite $x2527 (_ bv7 32) ?x1388)))))))
(let ((?x2109 (ite $x3523 ?x3348 (ite $x3929 (_ bv12 32) ?x3947))))
(let ((?x40571 (ite (= (_ bv2 32) ?x2109) (ite $x4527 (_ bv31 32) (_ bv31 32)) (ite (= (_ bv1 32) ?x2109) (ite $x4527 (_ bv0 32) (_ bv0 32)) (_ bv0 32)))))
(let ((?x3698 (ite (= (_ bv4 32) ?x2109) (ite $x4527 (_ bv91 32) (_ bv90 32)) (ite (= (_ bv3 32) ?x2109) (ite $x4527 (_ bv60 32) (_ bv59 32)) ?x40571))))
(let ((?x3789 (ite (= (_ bv6 32) ?x2109) (ite $x4527 (_ bv152 32) (_ bv151 32)) (ite (= (_ bv5 32) ?x2109) (ite $x4527 (_ bv121 32) (_ bv120 32)) ?x3698))))
(let ((?x693 (ite (= (_ bv8 32) ?x2109) (ite $x4527 (_ bv213 32) (_ bv212 32)) (ite (= (_ bv7 32) ?x2109) (ite $x4527 (_ bv182 32) (_ bv181 32)) ?x3789))))
(let ((?x3660 (ite (= (_ bv10 32) ?x2109) (ite $x4527 (_ bv274 32) (_ bv273 32)) (ite (= (_ bv9 32) ?x2109) (ite $x4527 (_ bv244 32) (_ bv243 32)) ?x693))))
(let ((?x40395 (ite (= (_ bv12 32) ?x2109) (ite $x4527 (_ bv335 32) (_ bv334 32)) (ite (= (_ bv11 32) ?x2109) (ite $x4527 (_ bv305 32) (_ bv304 32)) ?x3660))))
(let ((?x4399 (bvadd (bvmul (_ bv365 32) (bvsub (ite $x3523 ?x1411 ?x4082) (_ bv1 32))) (bvsdiv (bvsub (ite $x3523 ?x1411 ?x4082) (_ bv1 32)) (_ bv4 32)))))
(let ((?x41558 (bvadd (bvsub ?x4399 (bvsdiv (bvsub (ite $x3523 ?x1411 ?x4082) (_ bv1 32)) (_ bv100 32))) (bvsdiv (bvsub (ite $x3523 ?x1411 ?x4082) (_ bv1 32)) (_ bv400 32)))))
(let ((?x40589 (bvsub (bvadd (bvadd ?x41558 ?x40395) (bvsub (ite $x3523 ?x2161 ?x1697) (_ bv1 32))) (_ bv730179 32))))
(not (= ?x40589 (bvadd x_days (_ bv365 32))))))))))))))))))))))))))))))))))))))))))))))))))))))))))))))))))))))))))))))))))))))))))))))))))))))))))))))))))))))))))
(check-sat)
